158
1000000
543187
73407
265690
122442
41081
146981
163450
285524
643235
384
199748
259942
617616
104906
433208
380379
184967
339769
787367
386295
529564
1795
473857
560832
445352
729001
755630
108018
757846
46575
506280
613705
218839
847628
450104
300370
75002
42030
270999
259427
144965
440562
563048
529055
822966
424825
264372
717302
142904
375054
537822
791104
20789
64114
204858
69078
859856
454820
770882
426550
298307
181950
150412
325762
140144
55746
347704
924411
408857
229118
425526
574474
973437
1458
328002
384159
68013
222945
456813
83478
51399
385965
49898
308149
950876
29568
134136
937213
685801
551197
9770
319964
605721
614035
356765
159051
244370
950102
390936
470436
619634
175510
234022
317881
383969
410360
75589
791602
67721
591143
354337
317768
666340
26563
213520
462178
208896
734310
212633
730828
208398
174609
77370
453097
619621
97829
62787
282698
24661
294048
522747
445912
738058
327895
253052
314199
362789
448803
120923
632615
815033
781161
566792
777055
11086
680036
886320
191958
671998
113680
188535
49124
93662
559438
998542
839352
158853
177034
